Traveling Salesman Problem/TSP_generados/Aleatorio1621104022_18.tsp
NAME: Aleatorio1621104022_18.tsp
COMMENT: Randomly generated scenario
TYPE: TSP
DIMENSION: 18
EDGE_WEIGHT_TYPE: ATT
NODE_COORD_SECTION
1 26.98 7.06
2 24.63 26.87
3 14.75 20.41
4 30.88 3.41
5 44.66 41.23
6 40.27 27.54
7 18.67 8.68
8 8.79 34.01
9 7.8 37.56
10 3.91 10.03
11 20.1 7.44
12 49.91 17.24
13 36.6 3.74
14 23.59 26.57
15 17.45 48.85
16 7.96 49.71
17 47.23 2.31
18 38.66 21.73
