Traveling Salesman Problem/TSP_generados/Aleatorio1621104022_18.opt.tour
NAME: Aleatorio1621104022_18.opt.tour
COMMENT: Optimal solution for Aleatorio1621104022_18 (190.95120540883622)
TYPE: TOUR
DIMENSION: 18
TOUR_SECTION
1 4 13 17 12 18 6 5 15 16 9 8 2 14 3 10 7 11
-1
EOF
